4 
5  37 53 
6  08 23 39 49 54 59 
7  04 09 14 19 24 29 34 39 44 49 54 59 
8  04 09 14 19 24 29 34 39 44 49 54 59 
9  04 09 14 19 24 29 34 39 44 49 54 59 
10  04 10 16 24 31 39 46 54 
11  01 09 16 24 31 39 46 54 
12  01 09 16 24 31 39 46 54 
13  01 09 16 26 33 41 48 55 
14  03 11 18 26 33 41 48 55 
15  03 11 18 26 31 36 40 46 51 56 
16  01 06 10 16 21 25 31 36 40 46 51 55 
17  01 06 10 16 21 25 31 36 40 46 51 55 
18  01 06 10 16 21 26 31 36 41 46 51 56 
19  01 06 11 16 20 26 32 39 46 54 
20  01 09 16 24 30 37 45 53 
21  00 11 26 33 41 56 
22  11 26 36 51 
23  06 21 35 
0 
